NAME: concorde13
TYPE: TSP
COMMENT: Generated by CCutil_writetsplib
COMMENT: Write called for by Concorde GUI
DIMENSION: 13
EDGE_WEIGHT_TYPE: EUC_2D
NODE_COORD_SECTION
1 8.190883 85.330579
2 23.646724 94.628099
3 16.666667 68.801653
4 12.464387 27.479339
5 29.843305 28.099174
6 37.820513 52.066116
7 56.766382 36.983471
8 61.752137 19.628099
9 77.492877 18.181818
10 75.000000 41.942149
11 56.552707 75.826446
12 42.877493 91.735537
13 33.618234 77.479339
